\ File written by HiGHS .lp file handler
min
 obj: -0.075 PBOSORD0 -0.075 PBOSORD1 -0.075 PBOSORD2 -0.075 PBOSORD3 -0.075 PBOSORD4 -0.027 PBOSLGA0 -0.027 PBOSLGA1 -0.027 PBOSLGA2 -0.027 PBOSLGA3 -0.053 PBOSCLE0 -0.053 PBOSCLE1 -0.053 PBOSCLE2 -0.053 PBOSCLE3 -0.075 PORDBOS0 -0.075 PORDBOS1 -0.075 PORDBOS2 -0.075 PORDBOS3 -0.075 PORDBOS4 -0.068 PORDLGA0 -0.068 PORDLGA1 -0.068 PORDLGA2 -0.068 PORDLGA3 -0.035 PORDCLE0 -0.035 PORDCLE1 -0.035 PORDCLE2 -0.035 PORDCLE3 -0.027 PLGABOS0 -0.027 PLGABOS1 -0.027 PLGABOS2 -0.027 PLGABOS3 -0.027 PLGABOS4 -0.027 PLGABOS5 -0.068 PLGAORD0 -0.068 PLGAORD1 -0.068
 PLGAORD2 -0.068 PLGAORD3 -0.037 PLGACLE0 -0.037 PLGACLE1 -0.037 PLGACLE2 -0.053 PCLEBOS0 -0.053 PCLEBOS1 -0.053 PCLEBOS2 -0.053 PCLEBOS3 -0.053 PCLEBOS4 -0.035 PCLEORD0 -0.035 PCLEORD1 -0.035 PCLEORD2 -0.035 PCLEORD3 -0.035 PCLEORD4 -0.037 PCLELGA0 -0.037 PCLELGA1 -0.037 PCLELGA2 -0.037 PCLELGA3 -0.75 BBOSORD0 -0.75 BBOSORD1 -0.53 BBOSCLE0 -0.53 BBOSCLE1 -0.75 BORDBOS0 -0.75 CBOSORD0 -0.75 CBOSORD1 -0.75 CBOSORD2 -0.75 CBOSORD3 -0.75 CBOSORD4 -0.53 CBOSCLE0 -0.53 CBOSCLE1 -0.53 CBOSCLE2 -0.53 CBOSCLE3 -0.75 CORDBOS0 -0.75 CORDBOS1 -0.75 CORDBOS2 -0.75
 CORDBOS3 -0.75 CORDBOS4 -0.68 CORDLGA0 -0.68 CORDLGA1 -0.68 CORDLGA2 -0.68 CORDLGA3 -0.68 CLGAORD0 -0.68 CLGAORD1 -0.68 CLGAORD2 -0.68 CLGAORD3 -0.37 CLGACLE0 -0.37 CLGACLE1 -0.37 CLGACLE2 -0.37 CCLELGA0 -0.37 CCLELGA1 -0.37 CCLELGA2 -0.37 CCLELGA3 +0.65 GRDTIMO1 -0.05 GRDTIMN1 +0.275 GRDTIMO2 -0.02889 GRDTIMN2 -0.03611 GRDTIMN3 -0.01333 GRDTIMN4 +0.01 N1003AC1 +0.02 N1003AC2 +0.03 N1003AC3 +0.04 N1003AC4 +4.04337 N1005AC1 +1.60964 N1005AC2 +1.93119 N1005AC3 +1.34618 N1005AC4 +1.1 N1011AC1 +1.2 N1011AC2 +1.3 N1011AC3 +2.34647 N1011AC4 +2.36783 N1013AC2
 +1.90292 N1013AC4 +1.36416 N1015AC2 +1.14401 N1015AC4 +1.64736 N1017AC2 +1.33312 N1017AC4 +2.55381 N1019AC2 +2.14431 N1019AC4 +3.12679 N1021AC1 +1.18965 N1021AC2 +1.42472 N1021AC3 +1.0003 N1021AC4 +3.12679 N1002AC1 +1.18965 N1002AC2 +1.42472 N1002AC3 +1.0003 N1002AC4 +1.64736 N1004AC2 +1.33312 N1004AC4 +7.17016 N1006AC1 +2.79929 N1006AC2 +3.35591 N1006AC3 +2.34647 N1006AC4 +2.36783 N1008AC2 +1.90292 N1008AC4 +3.27428 N1010AC2 +2.71411 N1010AC4 +1.36416 N1012AC2 +1.14401 N1012AC4 +2.08463 N1014AC2 +1.71382 N1014AC4 +6.07357 N1100AC2 +5.06059 N1100AC4
 +5.16712 N1102AC2 +4.24939 N1102AC4 +0.72047 N1200AC2 +0.5698 N1200AC4 +0.72047 N1201AC2 +0.5698 N1201AC4 
st
 REVENUES: +0.075 PBOSORD0 +0.075 PBOSORD1 +0.075 PBOSORD2 +0.075 PBOSORD3 +0.075 PBOSORD4 +0.027 PBOSLGA0 +0.027 PBOSLGA1 +0.027 PBOSLGA2 +0.027 PBOSLGA3 +0.053 PBOSCLE0 +0.053 PBOSCLE1 +0.053 PBOSCLE2 +0.053 PBOSCLE3 +0.075 PORDBOS0 +0.075 PORDBOS1 +0.075 PORDBOS2 +0.075 PORDBOS3 +0.075 PORDBOS4 +0.068 PORDLGA0 +0.068 PORDLGA1 +0.068 PORDLGA2 +0.068 PORDLGA3 +0.035 PORDCLE0 +0.035 PORDCLE1 +0.035 PORDCLE2 +0.035 PORDCLE3 +0.027 PLGABOS0 +0.027 PLGABOS1 +0.027 PLGABOS2 +0.027 PLGABOS3 +0.027 PLGABOS4 +0.027 PLGABOS5 +0.068 PLGAORD0 +0.068 PLGAORD1
 +0.068 PLGAORD2 +0.068 PLGAORD3 +0.037 PLGACLE0 +0.037 PLGACLE1 +0.037 PLGACLE2 +0.053 PCLEBOS0 +0.053 PCLEBOS1 +0.053 PCLEBOS2 +0.053 PCLEBOS3 +0.053 PCLEBOS4 +0.035 PCLEORD0 +0.035 PCLEORD1 +0.035 PCLEORD2 +0.035 PCLEORD3 +0.035 PCLEORD4 +0.037 PCLELGA0 +0.037 PCLELGA1 +0.037 PCLELGA2 +0.037 PCLELGA3 +0.75 BBOSORD0 +0.75 BBOSORD1 +0.53 BBOSCLE0 +0.53 BBOSCLE1 +0.75 BORDBOS0 +0.75 CBOSORD0 +0.75 CBOSORD1 +0.75 CBOSORD2 +0.75 CBOSORD3 +0.75 CBOSORD4 +0.53 CBOSCLE0 +0.53 CBOSCLE1 +0.53 CBOSCLE2 +0.53 CBOSCLE3 +0.75 CORDBOS0 +0.75 CORDBOS1 +0.75 CORDBOS2
 +0.75 CORDBOS3 +0.75 CORDBOS4 +0.68 CORDLGA0 +0.68 CORDLGA1 +0.68 CORDLGA2 +0.68 CORDLGA3 +0.68 CLGAORD0 +0.68 CLGAORD1 +0.68 CLGAORD2 +0.68 CLGAORD3 +0.37 CLGACLE0 +0.37 CLGACLE1 +0.37 CLGACLE2 +0.37 CCLELGA0 +0.37 CCLELGA1 +0.37 CCLELGA2 +0.37 CCLELGA3 >= +0
 ACOCOSTS: +0.65 GRDTIMO1 -0.05 GRDTIMN1 +0.275 GRDTIMO2 -0.02889 GRDTIMN2 -0.03611 GRDTIMN3 -0.01333 GRDTIMN4 +0.01 N1003AC1 +0.02 N1003AC2 +0.03 N1003AC3 +0.04 N1003AC4 +4.04337 N1005AC1 +1.60964 N1005AC2 +1.93119 N1005AC3 +1.34618 N1005AC4 +1.1 N1011AC1 +1.2 N1011AC2 +1.3 N1011AC3 +2.34647 N1011AC4 +2.36783 N1013AC2 +1.90292 N1013AC4 +1.36416 N1015AC2 +1.14401 N1015AC4 +1.64736 N1017AC2 +1.33312 N1017AC4 +2.55381 N1019AC2 +2.14431 N1019AC4 +3.12679 N1021AC1 +1.18965 N1021AC2 +1.42472 N1021AC3 +1.0003 N1021AC4 +3.12679 N1002AC1 +1.18965 N1002AC2
 +1.42472 N1002AC3 +1.0003 N1002AC4 +1.64736 N1004AC2 +1.33312 N1004AC4 +7.17016 N1006AC1 +2.79929 N1006AC2 +3.35591 N1006AC3 +2.34647 N1006AC4 +2.36783 N1008AC2 +1.90292 N1008AC4 +3.27428 N1010AC2 +2.71411 N1010AC4 +1.36416 N1012AC2 +1.14401 N1012AC4 +2.08463 N1014AC2 +1.71382 N1014AC4 +6.07357 N1100AC2 +5.06059 N1100AC4 +5.16712 N1102AC2 +4.24939 N1102AC4 +0.72047 N1200AC2 +0.5698 N1200AC4 +0.72047 N1201AC2 +0.5698 N1201AC4 >= +0
 FUELAVAL: +7.98429 N1003AC1 +2.51914 N1003AC2 +3.15178 N1003AC3 +1.99337 N1003AC4 +5.83404 N1005AC1 +1.82258 N1005AC2 +2.27351 N1005AC3 +1.41795 N1005AC4 +9.91398 N1011AC1 +3.07692 N1011AC2 +3.83055 N1011AC3 +2.3665 N1011AC4 +3.16965 N1013AC2 +2.4431 N1013AC4 +1.49045 N1015AC2 +1.14359 N1015AC4 +2.21183 N1017AC2 +1.73951 N1017AC4 +2.7448 N1019AC2 +2.09214 N1019AC4 +4.07994 N1021AC1 +1.25435 N1021AC2 +1.55704 N1021AC3 +0.94855 N1021AC4 +4.07994 N1002AC1 +1.25435 N1002AC2 +1.55704 N1002AC3 +0.94855 N1002AC4 +2.21183 N1004AC2 +1.73951 N1004AC4 +9.91398
 N1006AC1 +3.07692 N1006AC2 +3.83055 N1006AC3 +2.3665 N1006AC4 +3.16965 N1008AC2 +2.4431 N1008AC4 +3.70262 N1010AC2 +2.79573 N1010AC4 +1.49045 N1012AC2 +1.14359 N1012AC4 +2.44827 N1014AC2 +1.84718 N1014AC4 +6.77953 N1100AC2 +5.16223 N1100AC4 +6.24657 N1102AC2 +4.8096 N1102AC4 +0.95782 N1200AC2 +0.70359 N1200AC4 +0.95782 N1201AC2 +0.70359 N1201AC4 <= +100000
 SYSTDEPT: +1 N1003AC1 +1 N1003AC2 +1 N1003AC3 +1 N1003AC4 +1 N1005AC1 +1 N1005AC2 +1 N1005AC3 +1 N1005AC4 +2 N1011AC1 +2 N1011AC2 +2 N1011AC3 +2 N1011AC4 +2 N1013AC2 +2 N1013AC4 +1 N1015AC2 +1 N1015AC4 +1 N1017AC2 +1 N1017AC4 +2 N1019AC2 +2 N1019AC4 +1 N1021AC1 +1 N1021AC2 +1 N1021AC3 +1 N1021AC4 +1 N1002AC1 +1 N1002AC2 +1 N1002AC3 +1 N1002AC4 +1 N1004AC2 +1 N1004AC4 +2 N1006AC1 +2 N1006AC2 +2 N1006AC3 +2 N1006AC4 +2 N1008AC2 +2 N1008AC4 +3 N1010AC2 +3 N1010AC4 +1 N1012AC2 +1 N1012AC4 +2 N1014AC2 +2 N1014AC4 +5 N1100AC2 +5 N1100AC4 +4 N1102AC2 +4
 N1102AC4 +1 N1200AC2 +1 N1200AC4 +1 N1201AC2 +1 N1201AC4 >= +50
 ACMILES: +0.86441 N1003AC1 +0.86441 N1003AC2 +0.86441 N1003AC3 +0.86441 N1003AC4 +0.56156 N1005AC1 +0.56156 N1005AC2 +0.56156 N1005AC3 +0.56156 N1005AC4 +0.87605 N1011AC1 +0.87605 N1011AC2 +0.87605 N1011AC3 +0.87605 N1011AC4 +0.91637 N1013AC2 +0.91637 N1013AC4 +0.41715 N1015AC2 +0.41715 N1015AC4 +0.7308 N1017AC2 +0.7308 N1017AC4 +0.73165 N1019AC2 +0.73165 N1019AC4 +0.3145 N1021AC1 +0.3145 N1021AC2 +0.3145 N1021AC3 +0.3145 N1021AC4 +0.3145 N1002AC1 +0.3145 N1002AC2 +0.3145 N1002AC3 +0.3145 N1002AC4 +0.7308 N1004AC2 +0.7308 N1004AC4 +0.87605 N1006AC1
 +0.87605 N1006AC2 +0.87605 N1006AC3 +0.87605 N1006AC4 +0.91637 N1008AC2 +0.91637 N1008AC4 +0.91722 N1010AC2 +0.91722 N1010AC4 +0.41715 N1012AC2 +0.41715 N1012AC4 +0.60273 N1014AC2 +0.60273 N1014AC4 +1.79328 N1100AC2 +1.79328 N1100AC4 +1.79242 N1102AC2 +1.79242 N1102AC4 +0.18557 N1200AC2 +0.18557 N1200AC4 +0.18557 N1201AC2 +0.18557 N1201AC4 >= +0
 ASMILES: +351.81396 N1003AC1 +113.23743 N1003AC2 +228.55299 N1005AC1 +73.56374 N1005AC2 +356.55371 N1011AC1 +114.76299 N1011AC2 +120.04449 N1013AC2 +54.64705 N1015AC2 +95.73444 N1017AC2 +95.8463 N1019AC2 +128.00075 N1021AC1 +41.19926 N1021AC2 +128.00075 N1002AC1 +41.19926 N1002AC2 +95.73444 N1004AC2 +356.55371 N1006AC1 +114.76299 N1006AC2 +120.04449 N1008AC2 +120.15637 N1010AC2 +54.64705 N1012AC2 +78.95706 N1014AC2 +234.91937 N1100AC2 +234.80756 N1102AC2 +24.31007 N1200AC2 +24.31007 N1201AC2 >= +0
 PASSNGRS: +1 PBOSORD0 +1 PBOSORD1 +1 PBOSORD2 +1 PBOSORD3 +1 PBOSORD4 +1 PBOSLGA0 +1 PBOSLGA1 +1 PBOSLGA2 +1 PBOSLGA3 +1 PBOSCLE0 +1 PBOSCLE1 +1 PBOSCLE2 +1 PBOSCLE3 +1 PORDBOS0 +1 PORDBOS1 +1 PORDBOS2 +1 PORDBOS3 +1 PORDBOS4 +1 PORDLGA0 +1 PORDLGA1 +1 PORDLGA2 +1 PORDLGA3 +1 PORDCLE0 +1 PORDCLE1 +1 PORDCLE2 +1 PORDCLE3 +1 PLGABOS0 +1 PLGABOS1 +1 PLGABOS2 +1 PLGABOS3 +1 PLGABOS4 +1 PLGABOS5 +1 PLGAORD0 +1 PLGAORD1 +1 PLGAORD2 +1 PLGAORD3 +1 PLGACLE0 +1 PLGACLE1 +1 PLGACLE2 +1 PCLEBOS0 +1 PCLEBOS1 +1 PCLEBOS2 +1 PCLEBOS3 +1 PCLEBOS4 +1 PCLEORD0 +1
 PCLEORD1 +1 PCLEORD2 +1 PCLEORD3 +1 PCLEORD4 +1 PCLELGA0 +1 PCLELGA1 +1 PCLELGA2 +1 PCLELGA3 >= +9431
 RPMILES: +0.86441 PBOSORD0 +0.87605 PBOSORD1 +0.91637 PBOSORD2 +0.91722 PBOSORD3 +0.87605 PBOSORD4 +0.18557 PBOSLGA0 +0.18557 PBOSLGA1 +1.60685 PBOSLGA2 +0.18557 PBOSLGA3 +0.56156 PBOSCLE0 +0.56156 PBOSCLE1 +0.60273 PBOSCLE2 +0.56156 PBOSCLE3 +0.87605 PORDBOS0 +0.91637 PORDBOS1 +0.91722 PORDBOS2 +0.87605 PORDBOS3 +0.91637 PORDBOS4 +0.7308 PORDLGA0 +0.7308 PORDLGA1 +0.73165 PORDLGA2 +0.7308 PORDLGA3 +0.3145 PORDCLE0 +0.3145 PORDCLE1 +0.3145 PORDCLE2 +0.3145 PORDCLE3 +0.18557 PLGABOS0 +0.18557 PLGABOS1 +0.18557 PLGABOS2 +1.6077 PLGABOS3 +0.18557 PLGABOS4
 +0.18557 PLGABOS5 +0.7308 PLGAORD0 +0.7308 PLGAORD1 +0.73165 PLGAORD2 +0.73165 PLGAORD3 +0.41715 PLGACLE0 +0.41715 PLGACLE1 +0.41715 PLGACLE2 +0.56156 PCLEBOS0 +0.60273 PCLEBOS1 +0.60273 PCLEBOS2 +0.56156 PCLEBOS3 +1.23087 PCLEBOS4 +0.3145 PCLEORD0 +0.3145 PCLEORD1 +0.3145 PCLEORD2 +0.3145 PCLEORD3 +0.3145 PCLEORD4 +0.41715 PCLELGA0 +0.41715 PCLELGA1 +0.41715 PCLELGA2 +1.0453 PCLELGA3 >= +0
 LFRPMASM: -0.86441 PBOSORD0 -0.87605 PBOSORD1 -0.91637 PBOSORD2 -0.91722 PBOSORD3 -0.87605 PBOSORD4 -0.18557 PBOSLGA0 -0.18557 PBOSLGA1 -1.60685 PBOSLGA2 -0.18557 PBOSLGA3 -0.56156 PBOSCLE0 -0.56156 PBOSCLE1 -0.60273 PBOSCLE2 -0.56156 PBOSCLE3 -0.87605 PORDBOS0 -0.91637 PORDBOS1 -0.91722 PORDBOS2 -0.87605 PORDBOS3 -0.91637 PORDBOS4 -0.7308 PORDLGA0 -0.7308 PORDLGA1 -0.73165 PORDLGA2 -0.7308 PORDLGA3 -0.3145 PORDCLE0 -0.3145 PORDCLE1 -0.3145 PORDCLE2 -0.3145 PORDCLE3 -0.18557 PLGABOS0 -0.18557 PLGABOS1 -0.18557 PLGABOS2 -1.6077 PLGABOS3 -0.18557
 PLGABOS4 -0.18557 PLGABOS5 -0.7308 PLGAORD0 -0.7308 PLGAORD1 -0.73165 PLGAORD2 -0.73165 PLGAORD3 -0.41715 PLGACLE0 -0.41715 PLGACLE1 -0.41715 PLGACLE2 -0.56156 PCLEBOS0 -0.60273 PCLEBOS1 -0.60273 PCLEBOS2 -0.56156 PCLEBOS3 -1.23087 PCLEBOS4 -0.3145 PCLEORD0 -0.3145 PCLEORD1 -0.3145 PCLEORD2 -0.3145 PCLEORD3 -0.3145 PCLEORD4 -0.41715 PCLELGA0 -0.41715 PCLELGA1 -0.41715 PCLELGA2 -1.0453 PCLELGA3 +211.088376 N1003AC1 +67.942458 N1003AC2 +137.131794 N1005AC1 +44.138244 N1005AC2 +213.932226 N1011AC1 +68.857794 N1011AC2 +72.026694 N1013AC2 +32.78823 N1015AC2
 +57.440664 N1017AC2 +57.50778 N1019AC2 +76.80045 N1021AC1 +24.719556 N1021AC2 +76.80045 N1002AC1 +24.719556 N1002AC2 +57.440664 N1004AC2 +213.932226 N1006AC1 +68.857794 N1006AC2 +72.026694 N1008AC2 +72.093822 N1010AC2 +32.78823 N1012AC2 +47.374236 N1014AC2 +140.951622 N1100AC2 +140.884536 N1102AC2 +14.586042 N1200AC2 +14.586042 N1201AC2 >= +0
 ATONMILE: +25.93224 N1003AC1 +34.57631 N1003AC3 +12.96612 N1003AC4 +16.84665 N1005AC1 +22.4622 N1005AC3 +8.42333 N1005AC4 +26.2816 N1011AC1 +35.04214 N1011AC3 +13.1408 N1011AC4 +13.74556 N1013AC4 +6.25729 N1015AC4 +10.96196 N1017AC4 +10.97477 N1019AC4 +9.43495 N1021AC1 +12.57993 N1021AC3 +4.71747 N1021AC4 +9.43495 N1002AC1 +12.57993 N1002AC3 +4.71747 N1002AC4 +10.96196 N1004AC4 +26.2816 N1006AC1 +35.04214 N1006AC3 +13.1408 N1006AC4 +13.74556 N1008AC4 +13.75836 N1010AC4 +6.25729 N1012AC4 +9.04089 N1014AC4 +26.89915 N1100AC4 +26.88635 N1102AC4 +2.7836
 N1200AC4 +2.7836 N1201AC4 >= +0
 RTONMILE: +0.86441 BBOSORD0 +0.87605 BBOSORD1 +0.56156 BBOSCLE0 +0.56156 BBOSCLE1 +0.87605 BORDBOS0 +0.86441 CBOSORD0 +0.87605 CBOSORD1 +0.91637 CBOSORD2 +0.91722 CBOSORD3 +0.87605 CBOSORD4 +0.56156 CBOSCLE0 +0.56156 CBOSCLE1 +0.60273 CBOSCLE2 +0.56156 CBOSCLE3 +0.87605 CORDBOS0 +0.91637 CORDBOS1 +0.91722 CORDBOS2 +0.87605 CORDBOS3 +0.91637 CORDBOS4 +0.7308 CORDLGA0 +0.7308 CORDLGA1 +0.73165 CORDLGA2 +0.7308 CORDLGA3 +0.7308 CLGAORD0 +0.7308 CLGAORD1 +0.73165 CLGAORD2 +0.73165 CLGAORD3 +0.41715 CLGACLE0 +0.41715 CLGACLE1 +0.41715 CLGACLE2 +0.41715
 CCLELGA0 +0.41715 CCLELGA1 +0.41715 CCLELGA2 +1.0453 CCLELGA3 >= +0
 LFTNMILE: -0.86441 BBOSORD0 -0.87605 BBOSORD1 -0.56156 BBOSCLE0 -0.56156 BBOSCLE1 -0.87605 BORDBOS0 -0.86441 CBOSORD0 -0.87605 CBOSORD1 -0.91637 CBOSORD2 -0.91722 CBOSORD3 -0.87605 CBOSORD4 -0.56156 CBOSCLE0 -0.56156 CBOSCLE1 -0.60273 CBOSCLE2 -0.56156 CBOSCLE3 -0.87605 CORDBOS0 -0.91637 CORDBOS1 -0.91722 CORDBOS2 -0.87605 CORDBOS3 -0.91637 CORDBOS4 -0.7308 CORDLGA0 -0.7308 CORDLGA1 -0.73165 CORDLGA2 -0.7308 CORDLGA3 -0.7308 CLGAORD0 -0.7308 CLGAORD1 -0.73165 CLGAORD2 -0.73165 CLGAORD3 -0.41715 CLGACLE0 -0.41715 CLGACLE1 -0.41715 CLGACLE2 -0.41715
 CCLELGA0 -0.41715 CCLELGA1 -0.41715 CCLELGA2 -1.0453 CCLELGA3 +12.96612 N1003AC1 +17.288155 N1003AC3 +6.48306 N1003AC4 +8.423325 N1005AC1 +11.2311 N1005AC3 +4.211665 N1005AC4 +13.1408 N1011AC1 +17.52107 N1011AC3 +6.5704 N1011AC4 +6.87278 N1013AC4 +3.128645 N1015AC4 +5.48098 N1017AC4 +5.487385 N1019AC4 +4.717475 N1021AC1 +6.289965 N1021AC3 +2.358735 N1021AC4 +4.717475 N1002AC1 +6.289965 N1002AC3 +2.358735 N1002AC4 +5.48098 N1004AC4 +13.1408 N1006AC1 +17.52107 N1006AC3 +6.5704 N1006AC4 +6.87278 N1008AC4 +6.87918 N1010AC4 +3.128645 N1012AC4 +4.520445
 N1014AC4 +13.449575 N1100AC4 +13.443175 N1102AC4 +1.3918 N1200AC4 +1.3918 N1201AC4 >= +0
 FLAV*1: +1 GRDTIMO1 +1 GRDTIMN1 +2.32729 N1003AC1 +1000 N1005AC1 +25 N1011AC1 +1.34295 N1021AC1 +1.34295 N1002AC1 +3.12813 N1006AC1 = +30
 FLAV*2: +1 GRDTIMO2 +1 GRDTIMN2 +2.10966 N1003AC2 +2000 N1005AC2 +25 N1011AC2 +2.65943 N1013AC2 +1.25093 N1015AC2 +1.85313 N1017AC2 +2.30477 N1019AC2 +1.05384 N1021AC2 +1.05384 N1002AC2 +1.85313 N1004AC2 +2.58202 N1006AC2 +2.65943 N1008AC2 +3.11107 N1010AC2 +1.25093 N1012AC2 +2.05723 N1014AC2 +5.69309 N1100AC2 +5.24145 N1102AC2 +0.8063 N1200AC2 +0.8063 N1201AC2 = +45
 FLAV*3: +1 GRDTIMN3 +2.10966 N1003AC3 +3000 N1005AC3 +26 N1011AC3 +1.05384 N1021AC3 +1.05384 N1002AC3 +2.58202 N1006AC3 = +0
 FLAV*4: +1 GRDTIMN4 +2.10966 N1003AC4 +1500 N1005AC4 +27 N1011AC4 +2.65943 N1013AC4 +1.25093 N1015AC4 +1.85313 N1017AC4 +2.30477 N1019AC4 +1.05384 N1021AC4 +1.05384 N1002AC4 +1.85313 N1004AC4 +2.58202 N1006AC4 +2.65943 N1008AC4 +3.11107 N1010AC4 +1.25093 N1012AC4 +2.05723 N1014AC4 +5.69309 N1100AC4 +5.24145 N1102AC4 +0.8063 N1200AC4 +0.8063 N1201AC4 = +0
 LF1003S1: -1 PBOSORD0 +305 N1003AC1 +98 N1003AC2 >= +0
 LF1003B1: -1 BBOSORD0 +12 N1003AC1 >= +0
 LF1003C1: -1 CBOSORD0 +30 N1003AC3 +11.25 N1003AC4 >= +0
 LF1005S1: -1 PBOSCLE0 +305 N1005AC1 +98 N1005AC2 >= +0
 LF1005B1: -1 BBOSCLE0 +12 N1005AC1 >= +0
 LF1005C1: -1 CBOSCLE0 +30 N1005AC3 +11.25 N1005AC4 >= +0
 LF1011S1: -1 PBOSORD1 -1 PBOSCLE1 +305 N1011AC1 +98 N1011AC2 >= +0
 LF1011S2: -1 PBOSORD1 -1 PCLEORD0 +305 N1011AC1 +98 N1011AC2 >= +0
 LF1011B1: -1 BBOSORD1 -1 BBOSCLE1 +12 N1011AC1 >= +0
 LF1011B2: -1 BBOSORD1 +12 N1011AC1 >= +0
 LF1011C1: -1 CBOSORD1 -1 CBOSCLE1 +30 N1011AC3 +11.25 N1011AC4 >= +0
 LF1011C2: -1 CBOSORD1 +30 N1011AC3 +11.25 N1011AC4 >= +0
 LF1013S1: -1 PBOSORD2 -1 PBOSLGA0 +98 N1013AC2 >= +0
 LF1013S2: -1 PBOSORD2 -1 PLGAORD0 +98 N1013AC2 >= +0
 LF1013B1: >= +0
 LF1013B2: >= +0
 LF1013C1: -1 CBOSORD2 +11.25 N1013AC4 >= +0
 LF1013C2: -1 CBOSORD2 -1 CLGAORD0 +11.25 N1013AC4 >= +0
 LF1015S1: -1 PLGACLE0 +98 N1015AC2 >= +0
 LF1015B1: >= +0
 LF1015C1: -1 CLGACLE0 +11.25 N1015AC4 >= +0
 LF1017S1: -1 PLGAORD1 +98 N1017AC2 >= +0
 LF1017B1: >= +0
 LF1017C1: -1 CLGAORD1 +11.25 N1017AC4 >= +0
 LF1019S1: -1 PLGAORD2 -1 PLGACLE1 +98 N1019AC2 >= +0
 LF1019S2: -1 PLGAORD2 -1 PCLEORD1 +98 N1019AC2 >= +0
 LF1019B1: >= +0
 LF1019B2: >= +0
 LF1019C1: -1 CLGAORD2 -1 CLGACLE1 +11.25 N1019AC4 >= +0
 LF1019C2: -1 CLGAORD2 +11.25 N1019AC4 >= +0
 LF1021S1: -1 PCLEORD2 +305 N1021AC1 +98 N1021AC2 >= +0
 LF1021B1: +12 N1021AC1 >= +0
 LF1021C1: +30 N1021AC3 +11.25 N1021AC4 >= +0
 LF1002S1: -1 PORDCLE0 +305 N1002AC1 +98 N1002AC2 >= +0
 LF1002B1: +12 N1002AC1 >= +0
 LF1002C1: +30 N1002AC3 +11.25 N1002AC4 >= +0
 LF1004S1: -1 PORDLGA0 +98 N1004AC2 >= +0
 LF1004B1: >= +0
 LF1004C1: -1 CORDLGA0 +11.25 N1004AC4 >= +0
 LF1006S1: -1 PORDBOS0 -1 PORDCLE1 +305 N1006AC1 +98 N1006AC2 >= +0
 LF1006S2: -1 PORDBOS0 -1 PCLEBOS0 +305 N1006AC1 +98 N1006AC2 >= +0
 LF1006B1: -1 BORDBOS0 +12 N1006AC1 >= +0
 LF1006B2: -1 BORDBOS0 +12 N1006AC1 >= +0
 LF1006C1: -1 CORDBOS0 +30 N1006AC3 +11.25 N1006AC4 >= +0
 LF1006C2: -1 CORDBOS0 +30 N1006AC3 +11.25 N1006AC4 >= +0
 LF1008S1: -1 PORDBOS1 -1 PORDLGA1 +98 N1008AC2 >= +0
 LF1008S2: -1 PORDBOS1 -1 PLGABOS0 +98 N1008AC2 >= +0
 LF1008B1: >= +0
 LF1008B2: >= +0
 LF1008C1: -1 CORDBOS1 -1 CORDLGA1 +11.25 N1008AC4 >= +0
 LF1008C2: -1 CORDBOS1 +11.25 N1008AC4 >= +0
 LF1010S1: -1 PORDBOS2 -1 PORDLGA2 -1 PORDCLE2 +98 N1010AC2 >= +0
 LF1010S2: -1 PORDBOS2 -1 PORDLGA2 -1 PCLEBOS1 -1 PCLELGA0 +98 N1010AC2 >= +0
 LF1010S3: -1 PORDBOS2 -1 PLGABOS1 -1 PCLEBOS1 +98 N1010AC2 >= +0
 LF1010B1: >= +0
 LF1010B2: >= +0
 LF1010B3: >= +0
 LF1010C1: -1 CORDBOS2 -1 CORDLGA2 +11.25 N1010AC4 >= +0
 LF1010C2: -1 CORDBOS2 -1 CORDLGA2 -1 CCLELGA0 +11.25 N1010AC4 >= +0
 LF1010C3: -1 CORDBOS2 +11.25 N1010AC4 >= +0
 LF1012S1: -1 PCLELGA1 +98 N1012AC2 >= +0
 LF1012B1: >= +0
 LF1012C1: -1 CCLELGA1 +11.25 N1012AC4 >= +0
 LF1014S1: -1 PCLEBOS2 -1 PCLELGA2 +98 N1014AC2 >= +0
 LF1014S2: -1 PLGABOS2 -1 PCLEBOS2 +98 N1014AC2 >= +0
 LF1014B1: >= +0
 LF1014B2: >= +0
 LF1014C1: -1 CCLELGA2 +11.25 N1014AC4 >= +0
 LF1014C2: +11.25 N1014AC4 >= +0
 LF1100S1: -1 PBOSORD3 -1 PBOSLGA1 -1 PBOSCLE2 +98 N1100AC2 >= +0
 LF1100S2: -1 PBOSORD3 -1 PBOSCLE2 -1 PLGABOS3 -1 PLGAORD3 -1 PLGACLE2 +98 N1100AC2 >= +0
 LF1100S3: -1 PBOSORD3 -1 PLGABOS3 -1 PLGAORD3 -1 PCLEORD3 +98 N1100AC2 >= +0
 LF1100S4: -1 PORDBOS3 -1 PORDCLE3 -1 PLGABOS3 +98 N1100AC2 >= +0
 LF1100S5: -1 PORDBOS3 -1 PLGABOS3 -1 PCLEBOS3 +98 N1100AC2 >= +0
 LF1100B1: >= +0
 LF1100B2: >= +0
 LF1100B3: >= +0
 LF1100B4: >= +0
 LF1100B5: >= +0
 LF1100C1: -1 CBOSORD3 -1 CBOSCLE2 +11.25 N1100AC4 >= +0
 LF1100C2: -1 CBOSORD3 -1 CBOSCLE2 -1 CLGAORD3 -1 CLGACLE2 +11.25 N1100AC4 >= +0
 LF1100C3: -1 CBOSORD3 -1 CLGAORD3 +11.25 N1100AC4 >= +0
 LF1100C4: -1 CORDBOS3 +11.25 N1100AC4 >= +0
 LF1100C5: -1 CORDBOS3 +11.25 N1100AC4 >= +0
 LF1102S1: -1 PBOSORD4 -1 PBOSLGA2 -1 PBOSCLE3 +98 N1102AC2 >= +0
 LF1102S2: -1 PBOSORD4 -1 PBOSLGA2 -1 PCLEBOS4 -1 PCLEORD4 -1 PCLELGA3 +98 N1102AC2 >= +0
 LF1102S3: -1 PBOSLGA2 -1 PORDBOS4 -1 PORDLGA3 -1 PCLEBOS4 -1 PCLELGA3 +98 N1102AC2 >= +0
 LF1102S4: -1 PORDBOS4 -1 PLGABOS4 -1 PCLEBOS4 +98 N1102AC2 >= +0
 LF1102B1: >= +0
 LF1102B2: >= +0
 LF1102B3: >= +0
 LF1102B4: >= +0
 LF1102C1: -1 CBOSORD4 -1 CBOSCLE3 +11.25 N1102AC4 >= +0
 LF1102C2: -1 CBOSORD4 -1 CCLELGA3 +11.25 N1102AC4 >= +0
 LF1102C3: -1 CORDBOS4 -1 CORDLGA3 -1 CCLELGA3 +11.25 N1102AC4 >= +0
 LF1102C4: -1 CORDBOS4 +11.25 N1102AC4 >= +0
 LF1200S1: -1 PBOSLGA3 +98 N1200AC2 >= +0
 LF1200B1: >= +0
 LF1200C1: +11.25 N1200AC4 >= +0
 LF1201S1: -1 PLGABOS5 +98 N1201AC2 >= +0
 LF1201B1: >= +0
 LF1201C1: +11.25 N1201AC4 >= +0
 NOPTCLE0: +1 N1005AC1 +1 N1005AC2 +1 N1005AC3 +1 N1005AC4 +2 N1011AC1 +2 N1011AC2 +2 N1011AC3 +2 N1011AC4 +1 N1015AC2 +1 N1015AC4 +2 N1019AC2 +2 N1019AC4 +1 N1021AC1 +1 N1021AC2 +1 N1021AC3 +1 N1021AC4 +1 N1002AC1 +1 N1002AC2 +1 N1002AC3 +1 N1002AC4 +2 N1006AC1 +2 N1006AC2 +2 N1006AC3 +2 N1006AC4 +2 N1010AC2 +2 N1010AC4 +1 N1012AC2 +1 N1012AC4 +1 N1014AC2 +1 N1014AC4 +4 N1100AC2 +4 N1100AC4 +2 N1102AC2 +2 N1102AC4 >= +24
 CONTBOS1: +1 N1003AC1 +1 N1005AC1 +1 N1011AC1 -1 N1006AC1 >= +0
 CONTBOS2: +1 N1003AC2 +1 N1005AC2 +1 N1011AC2 +1 N1013AC2 -1 N1006AC2 -1 N1008AC2 -1 N1010AC2 -1 N1014AC2 +1 N1200AC2 -1 N1201AC2 >= +0
 CONTBOS3: +1 N1003AC3 +1 N1005AC3 +1 N1011AC3 -1 N1006AC3 >= +0
 CONTBOS4: +1 N1003AC4 +1 N1005AC4 +1 N1011AC4 +1 N1013AC4 -1 N1006AC4 -1 N1008AC4 -1 N1010AC4 -1 N1014AC4 +1 N1200AC4 -1 N1201AC4 >= +0
 CONTORD1: -1 N1003AC1 -1 N1011AC1 -1 N1021AC1 +1 N1002AC1 +1 N1006AC1 >= +0
 CONTORD2: -1 N1003AC2 -1 N1011AC2 -1 N1013AC2 -1 N1017AC2 -1 N1019AC2 -1 N1021AC2 +1 N1002AC2 +1 N1004AC2 +1 N1006AC2 +1 N1008AC2 +1 N1010AC2 >= +0
 CONTORD3: -1 N1003AC3 -1 N1011AC3 -1 N1021AC3 +1 N1002AC3 +1 N1006AC3 >= +0
 CONTORD4: -1 N1003AC4 -1 N1011AC4 -1 N1013AC4 -1 N1017AC4 -1 N1019AC4 -1 N1021AC4 +1 N1002AC4 +1 N1004AC4 +1 N1006AC4 +1 N1008AC4 +1 N1010AC4 >= +0
 CONTLGA2: +1 N1015AC2 +1 N1017AC2 +1 N1019AC2 -1 N1004AC2 -1 N1012AC2 -1 N1200AC2 +1 N1201AC2 >= +0
 CONTLGA4: +1 N1015AC4 +1 N1017AC4 +1 N1019AC4 -1 N1004AC4 -1 N1012AC4 -1 N1200AC4 +1 N1201AC4 >= +0
 CONTCLE1: -1 N1005AC1 +1 N1021AC1 -1 N1002AC1 >= +0
 CONTCLE2: -1 N1005AC2 -1 N1015AC2 +1 N1021AC2 -1 N1002AC2 +1 N1012AC2 +1 N1014AC2 >= +0
 CONTCLE3: -1 N1005AC3 +1 N1021AC3 -1 N1002AC3 >= +0
 CONTCLE4: -1 N1005AC4 -1 N1015AC4 +1 N1021AC4 -1 N1002AC4 +1 N1012AC4 +1 N1014AC4 >= +0
 DMBOSORDlo: +1 PBOSORD0 +1 PBOSORD1 +1 PBOSORD2 +1 PBOSORD3 +1 PBOSORD4 >= +241
 DMBOSORDup: +1 PBOSORD0 +1 PBOSORD1 +1 PBOSORD2 +1 PBOSORD3 +1 PBOSORD4 <= +302
 DMBOSLGAlo: +1 PBOSLGA0 +1 PBOSLGA1 +1 PBOSLGA2 +1 PBOSLGA3 >= +1881
 DMBOSLGAup: +1 PBOSLGA0 +1 PBOSLGA1 +1 PBOSLGA2 +1 PBOSLGA3 <= +2352
 DMBOSCLElo: +1 PBOSCLE0 +1 PBOSCLE1 +1 PBOSCLE2 +1 PBOSCLE3 >= +113
 DMBOSCLEup: +1 PBOSCLE0 +1 PBOSCLE1 +1 PBOSCLE2 +1 PBOSCLE3 <= +142
 DMORDBOSlo: +1 PORDBOS0 +1 PORDBOS1 +1 PORDBOS2 +1 PORDBOS3 +1 PORDBOS4 >= +241
 DMORDBOSup: +1 PORDBOS0 +1 PORDBOS1 +1 PORDBOS2 +1 PORDBOS3 +1 PORDBOS4 <= +302
 DMORDLGAlo: +1 PORDLGA0 +1 PORDLGA1 +1 PORDLGA2 +1 PORDLGA3 >= +412
 DMORDLGAup: +1 PORDLGA0 +1 PORDLGA1 +1 PORDLGA2 +1 PORDLGA3 <= +515
 DMORDCLElo: +1 PORDCLE0 +1 PORDCLE1 +1 PORDCLE2 +1 PORDCLE3 >= +495
 DMORDCLEup: +1 PORDCLE0 +1 PORDCLE1 +1 PORDCLE2 +1 PORDCLE3 <= +619
 DMLGABOSlo: +1 PLGABOS0 +1 PLGABOS1 +1 PLGABOS2 +1 PLGABOS3 +1 PLGABOS4 +1 PLGABOS5 >= +2194
 DMLGABOSup: +1 PLGABOS0 +1 PLGABOS1 +1 PLGABOS2 +1 PLGABOS3 +1 PLGABOS4 +1 PLGABOS5 <= +2743
 DMLGAORDlo: +1 PLGAORD0 +1 PLGAORD1 +1 PLGAORD2 +1 PLGAORD3 >= +569
 DMLGAORDup: +1 PLGAORD0 +1 PLGAORD1 +1 PLGAORD2 +1 PLGAORD3 <= +712
 DMLGACLElo: +1 PLGACLE0 +1 PLGACLE1 +1 PLGACLE2 >= +413
 DMLGACLEup: +1 PLGACLE0 +1 PLGACLE1 +1 PLGACLE2 <= +517
 DMCLEBOSlo: +1 PCLEBOS0 +1 PCLEBOS1 +1 PCLEBOS2 +1 PCLEBOS3 +1 PCLEBOS4 >= +104
 DMCLEBOSup: +1 PCLEBOS0 +1 PCLEBOS1 +1 PCLEBOS2 +1 PCLEBOS3 +1 PCLEBOS4 <= +131
 DMCLEORDlo: +1 PCLEORD0 +1 PCLEORD1 +1 PCLEORD2 +1 PCLEORD3 +1 PCLEORD4 >= +569
 DMCLEORDup: +1 PCLEORD0 +1 PCLEORD1 +1 PCLEORD2 +1 PCLEORD3 +1 PCLEORD4 <= +712
 DMCLELGAlo: +1 PCLELGA0 +1 PCLELGA1 +1 PCLELGA2 +1 PCLELGA3 >= +327
 DMCLELGAup: +1 PCLELGA0 +1 PCLELGA1 +1 PCLELGA2 +1 PCLELGA3 <= +409
 MSBOSORD: +1 N1003AC1 +1 N1003AC2 +1 N1011AC1 +1 N1011AC2 +1 N1013AC2 +1 N1100AC2 +1 N1102AC2 >= +3
 MSBOSLGA: +1 N1013AC2 +1 N1100AC2 +1 N1102AC2 +1 N1200AC2 >= +7
 MSBOSCLE: +1 N1005AC1 +1 N1005AC2 +1 N1011AC1 +1 N1011AC2 +1 N1100AC2 +1 N1102AC2 >= +1
 MSORDBOS: +1 N1006AC1 +1 N1006AC2 +1 N1008AC2 +1 N1010AC2 +1 N1100AC2 +1 N1102AC2 >= +3
 MSORDLGA: +1 N1004AC2 +1 N1008AC2 +1 N1010AC2 +1 N1102AC2 >= +4
 MSORDCLE: +1 N1002AC1 +1 N1002AC2 +1 N1006AC1 +1 N1006AC2 +1 N1010AC2 +1 N1100AC2 >= +5
 MSLGABOS: +1 N1008AC2 +1 N1010AC2 +1 N1014AC2 +1 N1100AC2 +1 N1102AC2 +1 N1201AC2 >= +7
 MSLGAORD: +1 N1013AC2 +1 N1017AC2 +1 N1019AC2 +1 N1100AC2 >= +5
 MSLGACLE: +1 N1015AC2 +1 N1019AC2 +1 N1100AC2 >= +4
 MSCLEBOS: +1 N1006AC1 +1 N1006AC2 +1 N1010AC2 +1 N1014AC2 +1 N1100AC2 +1 N1102AC2 >= +1
 MSCLEORD: +1 N1011AC1 +1 N1011AC2 +1 N1019AC2 +1 N1021AC1 +1 N1021AC2 +1 N1100AC2 +1 N1102AC2 >= +6
 MSCLELGA: +1 N1010AC2 +1 N1012AC2 +1 N1014AC2 +1 N1102AC2 >= +3
 DCBOSORDlo: +1 BBOSORD0 +1 BBOSORD1 +1 CBOSORD0 +1 CBOSORD1 +1 CBOSORD2 +1 CBOSORD3 +1 CBOSORD4 >= +0
 DCBOSORDup: +1 BBOSORD0 +1 BBOSORD1 +1 CBOSORD0 +1 CBOSORD1 +1 CBOSORD2 +1 CBOSORD3 +1 CBOSORD4 <= +12
 DCBOSCLElo: +1 BBOSCLE0 +1 BBOSCLE1 +1 CBOSCLE0 +1 CBOSCLE1 +1 CBOSCLE2 +1 CBOSCLE3 >= +12.8
 DCBOSCLEup: +1 BBOSCLE0 +1 BBOSCLE1 +1 CBOSCLE0 +1 CBOSCLE1 +1 CBOSCLE2 +1 CBOSCLE3 <= +16
 DCORDBOSlo: +1 BORDBOS0 +1 CORDBOS0 +1 CORDBOS1 +1 CORDBOS2 +1 CORDBOS3 +1 CORDBOS4 >= +19.2
 DCORDBOSup: +1 BORDBOS0 +1 CORDBOS0 +1 CORDBOS1 +1 CORDBOS2 +1 CORDBOS3 +1 CORDBOS4 <= +24
 DCORDLGAlo: +1 CORDLGA0 +1 CORDLGA1 +1 CORDLGA2 +1 CORDLGA3 >= +10.4
 DCORDLGAup: +1 CORDLGA0 +1 CORDLGA1 +1 CORDLGA2 +1 CORDLGA3 <= +13
 DCLGAORDlo: +1 CLGAORD0 +1 CLGAORD1 +1 CLGAORD2 +1 CLGAORD3 >= +36
 DCLGAORDup: +1 CLGAORD0 +1 CLGAORD1 +1 CLGAORD2 +1 CLGAORD3 <= +45
 DCLGACLElo: +1 CLGACLE0 +1 CLGACLE1 +1 CLGACLE2 >= +12.8
 DCLGACLEup: +1 CLGACLE0 +1 CLGACLE1 +1 CLGACLE2 <= +16
 DCCLELGAlo: +1 CCLELGA0 +1 CCLELGA1 +1 CCLELGA2 +1 CCLELGA3 >= +0
 DCCLELGAup: +1 CCLELGA0 +1 CCLELGA1 +1 CCLELGA2 +1 CCLELGA3 <= +5
 MCORDBOS: +1 N1006AC3 +1 N1006AC4 +1 N1008AC4 +1 N1010AC4 +1 N1100AC4 +1 N1102AC4 >= +1
 MCLGAORD: +1 N1013AC4 +1 N1017AC4 +1 N1019AC4 +1 N1100AC4 >= +2
bounds
 -100 <= GRDTIMN1 <= 0
 -90 <= GRDTIMN2 <= 0
 -45 <= GRDTIMN3 <= 0
 -45 <= GRDTIMN4 <= 0
 N1003AC1 <= 7
 N1003AC2 <= 7
 N1003AC3 <= 2
 N1003AC4 <= 2
 N1005AC1 <= 7
 N1005AC2 <= 7
 N1005AC3 <= 2
 N1005AC4 <= 2
 N1011AC1 <= 7
 N1011AC2 <= 7
 N1011AC3 <= 2
 N1011AC4 <= 2
 N1013AC2 <= 14
 N1013AC4 <= 2
 N1015AC2 <= 7
 N1015AC4 <= 2
 N1017AC2 <= 7
 N1017AC4 <= 2
 N1019AC2 <= 7
 N1019AC4 <= 2
 N1021AC1 <= 7
 N1021AC2 <= 7
 N1021AC3 <= 2
 N1021AC4 <= 2
 N1002AC1 <= 7
 N1002AC2 <= 7
 N1002AC3 <= 2
 N1002AC4 <= 2
 N1004AC2 <= 7
 N1004AC4 <= 2
 N1006AC1 <= 7
 N1006AC2 <= 7
 N1006AC3 <= 2
 N1006AC4 <= 2
 N1008AC2 <= 14
 N1008AC4 <= 2
 N1010AC2 <= 14
 N1010AC4 <= 2
 N1012AC2 <= 7
 N1012AC4 <= 2
 N1014AC2 <= 14
 N1014AC4 <= 2
 N1100AC2 <= 7
 N1100AC4 <= 7
 N1102AC2 <= 7
 N1102AC4 <= 7
 N1200AC2 <= 14
 N1200AC4 <= 7
 N1201AC2 <= 14
 N1201AC4 <= 7
end
